
  12    4
  10   10   10   10

   0   0   0   0   0   2 2 3 
   9  10  10  10  10   3 6 5 4 
   4  10  10  10  10   2 5 4 
   8  10  10  10  10   3 11 8 7 
   3  10  10  10  10   2 11 9 
  10  10  10  10  10   2 11 9 
   6  10  10  10  10   1 9 
   2  10  10  10  10   1 9 
   8  10  10  10  10   1 10 
   7  10  10  10  10   1 12
   1  10  10  10  10   1 12
   0   0   0   0   0   0 
